nNurses = 172;
nHours = 30;
minHours = 4;
maxHours = 8;
maxConsec = 7;
maxPresence = 23;
demand = [35, 40, 43, 45, 41, 39, 40, 44, 45, 41, 38, 40, 38, 35, 37, 42, 43, 43, 39, 42, 39, 43, 41, 36, 33, 30, 34, 31, 36, 36];
